8
2147483647 80 35 32 26 10 34 95 
80 2147483647 72 59 19 34 93 21 
35 72 2147483647 45 31 74 74 62 
32 59 45 2147483647 93 19 62 45 
26 19 31 93 2147483647 81 6 6 
10 34 74 19 81 2147483647 46 47 
34 93 74 62 6 46 2147483647 51 
95 21 62 45 6 47 51 2147483647 
